Si2                                     
   1.00000000000000     
    -2.7346182366535166   -2.7346182366535161   -0.0000000000000000
    -2.7346182366535161   -0.0000000000000000   -2.7346182366535161
    -0.0000000000000004   -2.7346182366535161   -2.7346182366535161
   Si
     2
Direct
  0.7500000000000000  0.7500000000000000  0.7500000000000000
  0.0000000000000000  0.0000000000000000  0.0000000000000000
 
  0.00000000E+00  0.00000000E+00  0.00000000E+00
  0.00000000E+00  0.00000000E+00  0.00000000E+00
