Si2
1.0
  -2.7218511850000002   -2.7218511849999998    0.0000000000000000
  -2.7218511849999998    0.0000000000000000   -2.7218511849999998
  -0.0000000000000004   -2.7218511849999998   -2.7218511849999998
Si
2
direct
   0.7500000000000000    0.7500000000000000    0.7500000000000000 Si0+
   0.0000000000000000    0.0000000000000000    0.0000000000000000 Si0+
